33D32945 STP File, STP Format Version 1.0

SECTION Comments
Name "cube_n13_d2_s24"
Problem "Euclidean Steiner Tree Problem"
Remark "Generated with STPGenerator. 2 dimensions."
END

SECTION Graph
Nodes 13
END

SECTION Coordinates
DD 0 0.0877142293 0.8987790253
DD 1 0.2479340957 0.6666313995
DD 2 0.8988103708 0.2810884273
DD 3 0.6454682083 0.0593314241
DD 4 0.8095185197 0.5094773627
DD 5 0.2020136715 0.8590005528
DD 6 0.1044992358 0.7127510368
DD 7 0.2668925339 0.4992394254
DD 8 0.8234275756 0.3046993158
DD 9 0.1001034840 0.3428378414
DD 10 0.1916555726 0.7579178944
DD 11 0.3188702512 0.3531317987
DD 12 0.4586557506 0.9458669317
END
